peakDumbCharging = 22200; 
Machine = anon_enum(16); 
machineSpeed = [3700,3700,3700,3700,3700,3700,3700,3700,3700,3700,3700,3700,3700,3700,3700,3700]; 
machineLoad = [3700,3700,3700,3700,3700,3700,3700,3700,3700,3700,3700,3700,3700,3700,3700,3700]; 
Car = anon_enum(21); 
demandCar = [6400,4320,7240,18440,12960,3600,12200,3600,7880,11200,12480,7520,14920,3000,9120,11360,4640,29800,8840,31360,11960]; 
arrivalCar = [79,79,78,73,70,69,66,65,59,58,56,54,50,50,49,48,46,45,43,41,39]; 
departureCar = [82,82,81,79,77,72,71,67,65,64,65,60,57,53,56,55,50,59,48,58,44]; 
